c description: Subset cardinality formula for fast_gnp_random_graph(6,10,0.6)
c generator: CNFgen (0.9.0)
c copyright: (C) 2012-2020 Massimo Lauria <massimo.lauria@uniroma1.it>
c url: https://massimolauria.net/cnfgen
c
p cnf 35 170
1 2 3 4 0
1 2 3 5 0
1 2 3 6 0
1 2 3 7 0
1 2 4 5 0
1 2 4 6 0
1 2 4 7 0
1 2 5 6 0
1 2 5 7 0
1 2 6 7 0
1 3 4 5 0
1 3 4 6 0
1 3 4 7 0
1 3 5 6 0
1 3 5 7 0
1 3 6 7 0
1 4 5 6 0
1 4 5 7 0
1 4 6 7 0
1 5 6 7 0
2 3 4 5 0
2 3 4 6 0
2 3 4 7 0
2 3 5 6 0
2 3 5 7 0
2 3 6 7 0
2 4 5 6 0
2 4 5 7 0
2 4 6 7 0
2 5 6 7 0
3 4 5 6 0
3 4 5 7 0
3 4 6 7 0
3 5 6 7 0
4 5 6 7 0
8 9 10 0
8 9 11 0
8 9 12 0
8 10 11 0
8 10 12 0
8 11 12 0
9 10 11 0
9 10 12 0
9 11 12 0
10 11 12 0
13 14 15 0
13 14 16 0
13 14 17 0
13 15 16 0
13 15 17 0
13 16 17 0
14 15 16 0
14 15 17 0
14 16 17 0
15 16 17 0
18 19 20 21 22 0
18 19 20 21 23 0
18 19 20 21 24 0
18 19 20 21 25 0
18 19 20 22 23 0
18 19 20 22 24 0
18 19 20 22 25 0
18 19 20 23 24 0
18 19 20 23 25 0
18 19 20 24 25 0
18 19 21 22 23 0
18 19 21 22 24 0
18 19 21 22 25 0
18 19 21 23 24 0
18 19 21 23 25 0
18 19 21 24 25 0
18 19 22 23 24 0
18 19 22 23 25 0
18 19 22 24 25 0
18 19 23 24 25 0
18 20 21 22 23 0
18 20 21 22 24 0
18 20 21 22 25 0
18 20 21 23 24 0
18 20 21 23 25 0
18 20 21 24 25 0
18 20 22 23 24 0
18 20 22 23 25 0
18 20 22 24 25 0
18 20 23 24 25 0
18 21 22 23 24 0
18 21 22 23 25 0
18 21 22 24 25 0
18 21 23 24 25 0
18 22 23 24 25 0
19 20 21 22 23 0
19 20 21 22 24 0
19 20 21 22 25 0
19 20 21 23 24 0
19 20 21 23 25 0
19 20 21 24 25 0
19 20 22 23 24 0
19 20 22 23 25 0
19 20 22 24 25 0
19 20 23 24 25 0
19 21 22 23 24 0
19 21 22 23 25 0
19 21 22 24 25 0
19 21 23 24 25 0
19 22 23 24 25 0
20 21 22 23 24 0
20 21 22 23 25 0
20 21 22 24 25 0
20 21 23 24 25 0
20 22 23 24 25 0
21 22 23 24 25 0
26 27 28 0
26 27 29 0
26 27 30 0
26 28 29 0
26 28 30 0
26 29 30 0
27 28 29 0
27 28 30 0
27 29 30 0
28 29 30 0
31 32 33 0
31 32 34 0
31 32 35 0
31 33 34 0
31 33 35 0
31 34 35 0
32 33 34 0
32 33 35 0
32 34 35 0
33 34 35 0
-1 -8 -18 0
-1 -8 -26 0
-1 -18 -26 0
-8 -18 -26 0
-9 -13 -19 0
-9 -13 -27 0
-9 -19 -27 0
-13 -19 -27 0
-2 -14 -20 0
-2 -14 -31 0
-2 -20 -31 0
-14 -20 -31 0
-21 -28 0
-21 -32 0
-28 -32 0
-3 -15 0
-4 -10 -16 0
-4 -10 -33 0
-4 -16 -33 0
-10 -16 -33 0
-5 -11 -22 0
-5 -11 -29 0
-5 -11 -34 0
-5 -22 -29 0
-5 -22 -34 0
-5 -29 -34 0
-11 -22 -29 0
-11 -22 -34 0
-11 -29 -34 0
-22 -29 -34 0
-6 -23 0
-6 -30 0
-23 -30 0
-17 -24 0
-17 -35 0
-24 -35 0
-7 -12 0
-7 -25 0
-12 -25 0